c description: Random 3-CNF over 18 variables and 77 clauses
c generator: CNFgen (0.9.2)
c copyright: (C) 2012-2022 Massimo Lauria <massimo.lauria@uniroma1.it>
c url: https://massimolauria.net/cnfgen
c command line: cnfgen --output CNF_4.28/18_bit_77_303.cnf randkcnf 3 18 77
c
p cnf 18 77
-6 -15 -17 0
-1 -12 -17 0
-6 -7 14 0
-2 3 -11 0
2 9 -14 0
2 -6 -12 0
-6 8 -15 0
10 16 18 0
-1 9 -16 0
-1 4 -8 0
5 -9 10 0
-2 -12 -13 0
-5 -6 -14 0
-4 12 17 0
5 -11 -13 0
-8 9 -13 0
-2 -9 -17 0
2 7 -14 0
1 14 -15 0
7 -8 -15 0
4 -5 18 0
-3 10 12 0
1 8 -10 0
-7 10 -11 0
-1 4 13 0
5 -8 -9 0
2 -6 7 0
-10 -11 13 0
2 3 -6 0
3 12 13 0
4 -5 -15 0
3 -15 -16 0
5 -6 -17 0
-2 4 -8 0
10 -17 -18 0
-4 -7 -12 0
1 5 -16 0
9 13 -17 0
6 7 11 0
13 -15 16 0
-8 10 -14 0
-2 4 -17 0
-4 6 16 0
1 6 8 0
9 -11 -16 0
-1 10 -18 0
11 13 18 0
9 11 13 0
-3 9 16 0
1 10 -14 0
2 -13 18 0
-3 8 16 0
4 -7 9 0
2 3 13 0
3 -10 12 0
-2 -7 13 0
3 -10 14 0
1 -3 -11 0
-7 -13 -18 0
3 -6 -16 0
-3 11 -13 0
-4 -8 16 0
-2 -5 8 0
3 9 -15 0
-2 -3 12 0
8 -10 11 0
-13 -15 -16 0
5 -10 -11 0
-3 -17 -18 0
3 11 -13 0
-8 -14 -16 0
1 5 -6 0
-9 11 -13 0
-5 -13 15 0
8 9 -11 0
5 -14 18 0
8 13 -18 0
